276	0	1
0	292	495	0	1
1	298	427	700	0	20	24	26
2	309	445	400	0	28
3	307	464	0	1
4	336	475	1200	0	13
5	320	439	40	0	9
6	321	437	80	0
7	322	437	0	1	25
8	323	433	900	0	19	10
9	324	433	600	0	5
10	323	429	750	0	8	19
11	314	435	1500	0
12	311	442	150	0	29	14	32
13	304	427	250	0	4
14	293	421	1600	0	12	29	32
15	296	418	450	0
16	261	384	700	0	17
17	297	410	550	0	16
18	315	407	650	0	30	21
19	314	406	200	0	8	10
20	321	391	400	0	1	24	26
21	321	398	300	0	18	30
22	314	394	0	1	27	23	31
23	313	378	700	0	22	27	31
24	304	382	750	0	1	20	26
25	295	402	1400	0	7
26	283	406	4000	0	1	20	24
27	279	399	600	0	22	23	31
28	271	401	1000	0	2
29	264	414	500	0	12	14	32
30	277	439	2500	0	18	21
31	290	434	1700	0	22	27	23
32	319	433	1100	0	12	29	14
